0000000000000000
0011111110000000
0111111111100000
0111111111110000
0000000001110000
0000000000111000
0000000000111000
0111000000111000
0111000000111000
0111000000111000
0111000000111000
0111000000111000
0111000000111000
0111000000111000
0111000000111000
0000000000000000
